p cnf 50 750
1 -50 -41 0
1 -50 -38 0
1 -50 -32 0
1 -50 -20 0
1 -50 -18 0
1 -50 -12 0
1 -50 -9 0
1 -50 -7 0
1 -50 -3 0
1 -50 5 0
1 -50 16 0
1 -50 17 0
1 -50 19 0
1 -50 21 0
1 -50 36 0
1 -49 -41 0
1 -49 -28 0
1 -49 -27 0
1 -49 -15 0
1 -49 1 0
1 -49 2 0
1 -49 11 0
1 -49 22 0
1 -49 26 0
1 -49 27 0
1 -49 28 0
1 -49 30 0
1 -49 35 0
1 -49 38 0
1 -49 48 0
1 -48 -46 0
1 -48 -42 0
1 -48 -35 0
1 -48 -34 0
1 -48 -31 0
1 -48 -27 0
1 -48 -26 0
1 -48 -22 0
1 -48 -17 0
1 -48 -10 0
1 -48 1 0
1 -48 4 0
1 -48 21 0
1 -48 23 0
1 -48 24 0
1 -47 -41 0
1 -47 -38 0
1 -47 -21 0
1 -47 -10 0
1 -47 -3 0
1 -47 1 0
1 -47 6 0
1 -47 14 0
1 -47 16 0
1 -47 19 0
1 -47 31 0
1 -47 33 0
1 -47 34 0
1 -47 41 0
1 -47 48 0
1 -46 -43 0
1 -46 -30 0
1 -46 -29 0
1 -46 -25 0
1 -46 -23 0
1 -46 -15 0
1 -46 10 0
1 -46 18 0
1 -46 24 0
1 -46 31 0
1 -46 36 0
1 -46 39 0
1 -46 41 0
1 -46 45 0
1 -45 -41 0
1 -45 -34 0
1 -45 -30 0
1 -45 -23 0
1 -45 -22 0
1 -45 -20 0
1 -45 -10 0
1 -45 -5 0
1 -45 10 0
1 -45 15 0
1 -45 21 0
1 -45 29 0
1 -45 34 0
1 -45 36 0
1 -45 48 0
1 -44 -27 0
1 -44 -20 0
1 -44 -14 0
1 -44 -13 0
1 -44 -12 0
1 -44 -5 0
1 -44 -3 0
1 -44 -2 0
1 -44 -1 0
1 -44 1 0
1 -44 6 0
1 -44 20 0
1 -44 31 0
1 -44 32 0
1 -44 48 0
1 -43 -25 0
1 -43 -19 0
1 -43 -18 0
1 -43 -17 0
1 -43 -13 0
1 -43 -11 0
1 -43 -1 0
1 -43 3 0
1 -43 19 0
1 -43 21 0
1 -43 28 0
1 -43 37 0
1 -43 39 0
1 -43 44 0
1 -42 -30 0
1 -42 -28 0
1 -42 -20 0
1 -42 -16 0
1 -42 -15 0
1 -42 4 0
1 -42 10 0
1 -42 11 0
1 -42 12 0
1 -42 22 0
1 -42 25 0
1 -42 29 0
1 -42 36 0
1 -42 49 0
1 -41 -32 0
1 -41 -28 0
1 -41 -18 0
1 -41 -5 0
1 -41 -2 0
1 -41 -1 0
1 -41 9 0
1 -41 17 0
1 -41 20 0
1 -41 38 0
1 -41 50 0
1 -40 -39 0
1 -40 -33 0
1 -40 -30 0
1 -40 -26 0
1 -40 -21 0
1 -40 -20 0
1 -40 -18 0
1 -40 -16 0
1 -40 -13 0
1 -40 -6 0
1 -40 10 0
1 -40 12 0
1 -40 25 0
1 -40 27 0
1 -40 29 0
1 -39 -34 0
1 -39 -32 0
1 -39 -24 0
1 -39 -21 0
1 -39 -11 0
1 -39 -10 0
1 -39 -4 0
1 -39 1 0
1 -39 19 0
1 -39 24 0
1 -39 35 0
1 -39 37 0
1 -39 43 0
1 -39 46 0
1 -38 -37 0
1 -38 -35 0
1 -38 -26 0
1 -38 -25 0
1 -38 -9 0
1 -38 -3 0
1 -38 8 0
1 -38 21 0
1 -38 22 0
1 -38 24 0
1 -38 26 0
1 -38 44 0
1 -38 45 0
1 -37 -30 0
1 -37 -22 0
1 -37 -18 0
1 -37 2 0
1 -37 9 0
1 -37 11 0
1 -37 13 0
1 -37 16 0
1 -37 21 0
1 -37 23 0
1 -37 33 0
1 -37 35 0
1 -37 43 0
1 -37 48 0
1 -36 -30 0
1 -36 -29 0
1 -36 -25 0
1 -36 -22 0
1 -36 -15 0
1 -36 -14 0
1 -36 -11 0
1 -36 -6 0
1 -36 -5 0
1 -36 6 0
1 -36 12 0
1 -36 17 0
1 -36 32 0
1 -36 33 0
1 -36 46 0
1 -35 -22 0
1 -35 -20 0
1 -35 -18 0
1 -35 -8 0
1 -35 6 0
1 -35 9 0
1 -35 10 0
1 -35 18 0
1 -35 26 0
1 -35 29 0
1 -35 40 0
1 -35 43 0
1 -35 46 0
1 -34 -24 0
1 -34 -16 0
1 -34 -8 0
1 -34 -7 0
1 -34 11 0
1 -34 17 0
1 -34 19 0
1 -34 20 0
1 -34 24 0
1 -34 25 0
1 -34 42 0
1 -34 47 0
1 -33 -32 0
1 -33 -28 0
1 -33 -23 0
1 -33 -17 0
1 -33 -16 0
1 -33 -7 0
1 -33 -3 0
1 -33 5 0
1 -33 7 0
1 -33 14 0
1 -33 28 0
1 -33 32 0
1 -33 42 0
1 -33 45 0
1 -32 -22 0
1 -32 -13 0
1 -32 -8 0
1 -32 -6 0
1 -32 4 0
1 -32 16 0
1 -32 22 0
1 -32 25 0
1 -32 29 0
1 -32 34 0
1 -32 39 0
1 -31 -29 0
1 -31 -28 0
1 -31 -16 0
1 -31 -6 0
1 -31 -4 0
1 -31 6 0
1 -31 7 0
1 -31 18 0
1 -31 20 0
1 -31 22 0
1 -31 39 0
1 -31 40 0
1 -31 41 0
1 -31 45 0
1 -30 -26 0
1 -30 -13 0
1 -30 4 0
1 -30 8 0
1 -30 10 0
1 -30 35 0
1 -30 38 0
1 -30 44 0
1 -30 45 0
1 -29 -24 0
1 -29 -23 0
1 -29 -18 0
1 -29 -17 0
1 -29 -4 0
1 -29 -2 0
1 -29 8 0
1 -29 11 0
1 -29 20 0
1 -29 28 0
1 -29 41 0
1 -29 50 0
1 -28 -23 0
1 -28 -18 0
1 -28 -14 0
1 -28 -10 0
1 -28 3 0
1 -28 9 0
1 -28 24 0
1 -28 26 0
1 -28 30 0
1 -28 48 0
1 -27 -24 0
1 -27 -23 0
1 -27 -15 0
1 -27 -2 0
1 -27 2 0
1 -27 11 0
1 -27 12 0
1 -27 20 0
1 -27 33 0
1 -27 37 0
1 -27 42 0
1 -27 45 0
1 -26 -24 0
1 -26 -15 0
1 -26 -9 0
1 -26 8 0
1 -26 21 0
1 -26 23 0
1 -26 29 0
1 -26 31 0
1 -26 33 0
1 -26 35 0
1 -26 48 0
1 -25 -23 0
1 -25 -19 0
1 -25 -17 0
1 -25 -2 0
1 -25 3 0
1 -25 5 0
1 -25 18 0
1 -25 21 0
1 -25 38 0
1 -25 39 0
1 -25 45 0
1 -24 -20 0
1 -24 -16 0
1 -24 -10 0
1 -24 -7 0
1 -24 -2 0
1 -24 1 0
1 -24 13 0
1 -24 20 0
1 -24 30 0
1 -24 41 0
1 -23 -11 0
1 -23 -10 0
1 -23 3 0
1 -23 17 0
1 -23 18 0
1 -23 21 0
1 -23 25 0
1 -23 49 0
1 -22 -19 0
1 -22 -13 0
1 -22 -8 0
1 -22 -3 0
1 -22 4 0
1 -22 6 0
1 -22 39 0
1 -22 44 0
1 -22 47 0
1 -21 -19 0
1 -21 -6 0
1 -21 -3 0
1 -21 2 0
1 -21 17 0
1 -21 18 0
1 -21 37 0
1 -21 40 0
1 -21 41 0
1 -21 44 0
1 -21 49 0
1 -21 50 0
1 -20 -4 0
1 -20 10 0
1 -20 13 0
1 -20 14 0
1 -20 21 0
1 -20 38 0
1 -20 41 0
1 -20 50 0
1 -19 -10 0
1 -19 11 0
1 -19 12 0
1 -19 14 0
1 -19 24 0
1 -19 26 0
1 -19 34 0
1 -19 38 0
1 -19 40 0
1 -19 42 0
1 -19 49 0
1 -18 -16 0
1 -18 5 0
1 -18 6 0
1 -18 27 0
1 -18 37 0
1 -18 44 0
1 -18 46 0
1 -17 -14 0
1 -17 -9 0
1 -17 6 0
1 -17 8 0
1 -17 13 0
1 -17 18 0
1 -17 25 0
1 -17 29 0
1 -17 46 0
1 -17 47 0
1 -16 -15 0
1 -16 -5 0
1 -16 13 0
1 -16 15 0
1 -16 20 0
1 -16 23 0
1 -16 24 0
1 -16 40 0
1 -15 -11 0
1 -15 1 0
1 -15 5 0
1 -15 16 0
1 -15 21 0
1 -15 30 0
1 -15 33 0
1 -15 44 0
1 -14 -12 0
1 -14 -6 0
1 -14 -4 0
1 -14 -2 0
1 -14 4 0
1 -14 29 0
1 -14 30 0
1 -14 34 0
1 -14 38 0
1 -14 43 0
1 -14 45 0
1 -13 -4 0
1 -13 4 0
1 -13 19 0
1 -13 20 0
1 -13 22 0
1 -13 27 0
1 -13 34 0
1 -13 44 0
1 -13 47 0
1 -12 -10 0
1 -12 -5 0
1 -12 5 0
1 -12 9 0
1 -12 16 0
1 -12 22 0
1 -12 25 0
1 -12 27 0
1 -12 36 0
1 -12 41 0
1 -12 46 0
1 -12 47 0
1 -11 -9 0
1 -11 -8 0
1 -11 9 0
1 -11 16 0
1 -11 18 0
1 -11 27 0
1 -11 34 0
1 -11 42 0
1 -11 46 0
1 -11 48 0
1 -10 6 0
1 -10 13 0
1 -10 14 0
1 -10 15 0
1 -10 41 0
1 -10 50 0
1 -9 -4 0
1 -9 -1 0
1 -9 3 0
1 -9 4 0
1 -9 10 0
1 -9 16 0
1 -9 18 0
1 -9 24 0
1 -9 38 0
1 -9 46 0
1 -8 7 0
1 -8 10 0
1 -8 14 0
1 -8 23 0
1 -8 25 0
1 -8 28 0
1 -8 29 0
1 -8 38 0
1 -8 43 0
1 -8 45 0
1 -7 -5 0
1 -7 -1 0
1 -7 1 0
1 -7 3 0
1 -7 5 0
1 -7 12 0
1 -7 16 0
1 -7 28 0
1 -7 30 0
1 -7 35 0
1 -7 43 0
1 -6 -4 0
1 -6 -1 0
1 -6 14 0
1 -6 23 0
1 -6 28 0
1 -6 33 0
1 -6 36 0
1 -6 43 0
1 -6 44 0
1 -5 7 0
1 -5 13 0
1 -5 19 0
1 -5 27 0
1 -5 44 0
1 -5 46 0
1 -5 47 0
1 -5 48 0
1 -4 -1 0
1 -4 1 0
1 -4 3 0
1 -4 38 0
1 -4 40 0
1 -4 44 0
1 -4 50 0
1 -3 5 0
1 -3 9 0
1 -3 12 0
1 -3 18 0
1 -3 20 0
1 -3 21 0
1 -3 22 0
1 -3 26 0
1 -2 19 0
1 -2 27 0
1 -2 28 0
1 -2 32 0
1 -2 33 0
1 -2 37 0
1 -2 39 0
1 -2 47 0
1 -1 8 0
1 -1 15 0
1 -1 19 0
1 -1 30 0
1 -1 32 0
1 -1 36 0
1 -1 37 0
1 -1 38 0
1 1 2 0
1 1 10 0
1 1 29 0
1 1 33 0
1 1 36 0
1 1 47 0
1 2 15 0
1 2 21 0
1 2 24 0
1 2 27 0
1 2 32 0
1 2 38 0
1 2 40 0
1 2 43 0
1 2 46 0
1 2 47 0
1 3 8 0
1 3 9 0
1 3 15 0
1 3 20 0
1 3 32 0
1 3 38 0
1 3 43 0
1 3 48 0
1 4 7 0
1 4 14 0
1 4 19 0
1 4 30 0
1 4 35 0
1 4 42 0
1 4 46 0
1 5 18 0
1 5 23 0
1 5 29 0
1 5 32 0
1 5 37 0
1 5 48 0
1 5 50 0
1 6 7 0
1 6 11 0
1 6 26 0
1 6 28 0
1 6 33 0
1 6 39 0
1 7 10 0
1 7 12 0
1 7 13 0
1 7 16 0
1 7 25 0
1 7 26 0
1 7 32 0
1 7 45 0
1 7 50 0
1 8 11 0
1 8 13 0
1 8 16 0
1 8 19 0
1 8 22 0
1 8 25 0
1 8 30 0
1 8 35 0
1 9 19 0
1 9 26 0
1 9 33 0
1 9 35 0
1 9 37 0
1 9 39 0
1 9 47 0
1 10 23 0
1 10 34 0
1 10 35 0
1 10 36 0
1 11 14 0
1 11 23 0
1 11 39 0
1 11 41 0
1 11 43 0
1 11 49 0
1 12 19 0
1 12 25 0
1 12 30 0
1 12 35 0
1 12 41 0
1 12 46 0
1 12 50 0
1 13 16 0
1 13 27 0
1 13 34 0
1 13 40 0
1 13 42 0
1 13 45 0
1 14 15 0
1 14 22 0
1 14 23 0
1 14 30 0
1 14 36 0
1 14 44 0
1 15 18 0
1 15 20 0
1 15 22 0
1 15 35 0
1 15 39 0
1 15 43 0
1 15 49 0
1 15 50 0
1 16 24 0
1 16 27 0
1 16 39 0
1 17 19 0
1 17 20 0
1 17 28 0
1 17 29 0
1 17 31 0
1 17 33 0
1 17 43 0
1 17 48 0
1 17 50 0
1 18 24 0
1 18 31 0
1 18 49 0
1 19 37 0
1 20 28 0
1 20 31 0
1 21 27 0
1 21 31 0
1 22 32 0
1 22 34 0
1 22 43 0
1 22 45 0
1 23 32 0
1 23 42 0
1 23 45 0
1 23 47 0
1 23 48 0
1 24 25 0
1 24 31 0
1 24 34 0
1 25 29 0
1 25 34 0
1 25 37 0
1 26 30 0
1 26 40 0
1 26 41 0
1 26 46 0
1 26 49 0
1 26 50 0
1 27 29 0
1 27 38 0
1 27 40 0
1 28 33 0
1 28 40 0
1 28 42 0
1 28 49 0
1 29 31 0
1 30 36 0
1 30 45 0
1 30 47 0
1 31 38 0
1 31 39 0
1 31 44 0
1 31 47 0
1 31 49 0
1 32 37 0
1 32 40 0
1 32 41 0
1 32 44 0
1 33 43 0
1 33 47 0
1 34 35 0
1 34 36 0
1 34 40 0
1 35 37 0
1 35 42 0
1 36 40 0
1 36 46 0
1 36 49 0
1 37 39 0
1 37 42 0
1 39 46 0
1 40 50 0
1 41 42 0
1 41 47 0
1 42 48 0
1 42 49 0
1 42 50 0
1 43 49 0
1 44 49 0
1 45 50 0
1 48 49 0
